DIMACS2
20 65 74 105 58 103 26 7 72 94 118 31 141 22 107 78 123 5 61 92 100
p edge 160 1208
e 0 69 2.0
e 0 91 1.0
e 0 142 1.0
e 0 101 3.0
e 0 131 2.0
e 0 108 1.0
e 0 74 28.0
e 0 110 2.0
e 1 89 2.0
e 1 17 1.0
e 1 6 1.0
e 1 122 2.0
e 1 51 2.0
e 1 155 2.0
e 1 153 1.0
e 1 73 1.0
e 2 133 1.0
e 2 44 1.0
e 2 85 1.0
e 2 52 1.0
e 2 43 1.0
e 2 30 1.0
e 2 100 30.0
e 2 14 1.0
e 3 110 1.0
e 3 83 1.0
e 3 80 1.0
e 3 122 2.0
e 3 89 1.0
e 3 119 1.0
e 3 67 1.0
e 3 5 3.0
e 4 70 1.0
e 4 62 1.0
e 4 5 28.0
e 4 158 1.0
e 4 114 1.0
e 4 125 1.0
e 4 115 1.0
e 4 34 1.0
e 5 148 30.0
e 5 33 32.0
e 5 112 36.0
e 5 23 6.0
e 5 120 41.0
e 5 142 8.0
e 5 91 23.0
e 5 76 32.0
e 6 40 1.0
e 6 108 1.0
e 6 46 1.0
e 6 151 1.0
e 6 54 1.0
e 6 99 1.0
e 6 112 1.0
e 6 91 1.0
e 7 70 1.0
e 7 118 1.0
e 7 95 37.0
e 7 31 27.0
e 7 148 47.0
e 7 40 48.0
e 7 141 36.0
e 7 104 8.0
e 8 150 1.0
e 8 77 1.0
e 8 33 1.0
e 8 154 1.0
e 8 138 1.0
e 8 122 1.0
e 8 155 1.0
e 9 136 1.0
e 9 51 1.0
e 9 132 1.0
e 9 106 1.0
e 9 25 1.0
e 9 104 1.0
e 9 107 5.0
e 9 145 1.0
e 10 100 6.0
e 10 52 1.0
e 10 42 1.0
e 10 47 2.0
e 10 60 3.0
e 10 153 1.0
e 10 15 1.0
e 11 79 1.0
e 11 14 1.0
e 11 88 1.0
e 11 123 23.0
e 11 40 1.0
e 11 157 1.0
e 11 96 1.0
e 11 101 1.0
e 12 66 1.0
e 12 134 1.0
e 12 95 1.0
e 12 37 1.0
e 12 77 1.0
e 12 51 1.0
e 12 104 1.0
e 12 63 1.0
e 13 56 1.0
e 13 141 32.0
e 13 23 1.0
e 13 9 2.0
e 13 90 1.0
e 13 93 2.0
e 13 139 1.0
e 13 50 3.0
e 14 116 1.0
e 14 122 2.0
e 14 143 1.0
e 14 47 1.0
e 14 106 1.0
e 14 74 24.0
e 14 57 1.0
e 14 76 1.0
e 15 1 1.0
e 15 18 1.0
e 15 73 1.0
e 15 36 1.0
e 15 63 1.0
e 15 112 1.0
e 15 86 2.0
e 15 91 1.0
e 16 63 3.0
e 16 69 1.0
e 16 11 2.0
e 16 25 1.0
e 16 157 1.0
e 16 94 31.0
e 16 154 2.0
e 16 155 1.0
e 17 125 1.0
e 17 3 1.0
e 17 90 1.0
e 17 16 1.0
e 17 18 1.0
e 17 113 2.0
e 17 30 1.0
e 17 64 2.0
e 18 101 1.0
e 18 34 1.0
e 18 6 1.0
e 18 129 1.0
e 18 100 49.0
e 18 153 1.0
e 18 55 1.0
e 18 111 2.0
e 19 151 2.0
e 19 88 1.0
e 19 143 1.0
e 19 46 2.0
e 19 12 1.0
e 19 145 1.0
e 19 0 1.0
e 19 84 1.0
e 20 32 1.0
e 20 39 1.0
e 20 122 2.0
e 20 139 1.0
e 20 78 40.0
e 20 144 1.0
e 20 137 1.0
e 20 121 1.0
e 21 151 1.0
e 21 154 1.0
e 21 17 1.0
e 21 66 1.0
e 21 96 1.0
e 21 104 1.0
e 21 15 2.0
e 21 56 1.0
e 22 127 19.0
e 22 18 29.0
e 22 71 12.0
e 22 38 15.0
e 22 141 3.0
e 22 62 9.0
e 22 119 13.0
e 22 131 31.0
e 23 65 35.0
e 23 104 1.0
e 23 97 1.0
e 23 48 1.0
e 23 111 1.0
e 23 124 1.0
e 23 89 1.0
e 23 146 1.0
e 24 52 1.0
e 24 97 1.0
e 24 3 1.0
e 24 75 1.0
e 24 136 1.0
e 24 58 6.0
e 24 13 2.0
e 24 64 2.0
e 25 3 1.0
e 25 90 1.0
e 25 95 1.0
e 25 8 1.0
e 25 70 1.0
e 25 39 1.0
e 25 84 1.0
e 26 132 7.0
e 26 155 30.0
e 26 83 39.0
e 26 15 48.0
e 26 69 46.0
e 26 19 23.0
e 26 91 38.0
e 27 72 13.0
e 27 106 1.0
e 27 3 1.0
e 27 134 1.0
e 27 147 1.0
e 27 114 2.0
e 27 95 1.0
e 27 151 1.0
e 28 96 1.0
e 28 51 1.0
e 28 125 1.0
e 28 56 1.0
e 28 49 1.0
e 28 83 1.0
e 28 73 1.0
e 28 43 1.0
e 29 126 1.0
e 29 84 1.0
e 29 43 1.0
e 29 91 1.0
e 29 136 1.0
e 29 54 1.0
e 29 26 44.0
e 30 53 2.0
e 30 35 1.0
e 30 145 1.0
e 30 148 2.0
e 30 108 1.0
e 30 15 3.0
e 30 100 26.0
e 30 104 2.0
e 31 110 4.0
e 31 102 24.0
e 31 94 45.0
e 31 71 17.0
e 31 97 11.0
e 31 114 3.0
e 31 25 4.0
e 31 139 15.0
e 32 127 1.0
e 32 29 1.0
e 32 92 38.0
e 32 38 1.0
e 32 49 1.0
e 32 142 1.0
e 32 33 1.0
e 33 29 1.0
e 33 147 1.0
e 33 102 1.0
e 33 3 1.0
e 33 107 10.0
e 33 97 1.0
e 33 75 1.0
e 33 62 1.0
e 34 46 2.0
e 34 147 1.0
e 34 63 2.0
e 34 145 1.0
e 34 125 1.0
e 34 114 3.0
e 34 118 11.0
e 34 137 1.0
e 35 95 1.0
e 35 103 5.0
e 35 105 35.0
e 35 111 1.0
e 35 31 11.0
e 35 13 1.0
e 35 41 2.0
e 35 117 1.0
e 36 5 6.0
e 36 27 2.0
e 36 56 1.0
e 36 34 1.0
e 36 9 1.0
e 36 18 1.0
e 36 72 12.0
e 36 51 1.0
e 37 87 1.0
e 37 51 1.0
e 37 142 1.0
e 37 128 1.0
e 37 114 1.0
e 37 88 2.0
e 37 119 1.0
e 37 101 1.0
e 38 92 26.0
e 38 147 1.0
e 38 107 44.0
e 38 74 1.0
e 38 135 1.0
e 38 131 1.0
e 38 64 2.0
e 38 49 1.0
e 39 115 1.0
e 39 112 1.0
e 39 48 1.0
e 39 132 1.0
e 39 129 1.0
e 39 12 1.0
e 39 50 1.0
e 40 97 1.0
e 40 136 1.0
e 40 119 1.0
e 40 31 1.0
e 40 52 2.0
e 40 4 1.0
e 40 54 1.0
e 40 154 1.0
e 41 97 2.0
e 41 150 2.0
e 41 22 43.0
e 41 54 2.0
e 41 151 1.0
e 41 95 1.0
e 41 75 2.0
e 41 128 2.0
e 42 29 1.0
e 42 2 1.0
e 42 138 1.0
e 42 110 1.0
e 42 48 1.0
e 42 32 1.0
e 42 56 1.0
e 42 66 1.0
e 43 79 1.0
e 43 0 2.0
e 43 45 1.0
e 43 140 1.0
e 43 142 1.0
e 43 83 1.0
e 43 59 1.0
e 43 26 18.0
e 44 55 1.0
e 44 69 1.0
e 44 92 12.0
e 44 102 1.0
e 44 123 6.0
e 44 137 1.0
e 44 158 1.0
e 45 27 2.0
e 45 72 43.0
e 45 120 1.0
e 45 80 1.0
e 45 158 1.0
e 45 137 1.0
e 45 64 1.0
e 45 51 1.0
e 46 44 1.0
e 46 33 1.0
e 46 124 1.0
e 46 32 1.0
e 46 128 2.0
e 46 20 1.0
e 46 78 2.0
e 46 9 1.0
e 47 121 1.0
e 47 24 1.0
e 47 40 1.0
e 47 118 36.0
e 47 8 1.0
e 47 148 1.0
e 47 31 21.0
e 47 88 2.0
e 48 37 1.0
e 48 20 1.0
e 48 0 2.0
e 48 102 1.0
e 48 78 42.0
e 48 147 1.0
e 48 99 1.0
e 48 116 2.0
e 49 6 1.0
e 49 66 1.0
e 49 127 1.0
e 49 27 1.0
e 49 82 1.0
e 49 40 1.0
e 49 7 24.0
e 50 47 1.0
e 50 140 1.0
e 50 51 1.0
e 50 77 2.0
e 50 106 1.0
e 50 26 7.0
e 50 112 1.0
e 50 82 1.0
e 51 19 1.0
e 51 153 1.0
e 51 34 1.0
e 51 145 1.0
e 51 134 1.0
e 51 120 1.0
e 51 147 1.0
e 51 106 1.0
e 52 108 2.0
e 52 53 1.0
e 52 43 2.0
e 52 11 1.0
e 52 119 2.0
e 52 133 1.0
e 52 18 1.0
e 52 63 2.0
e 53 108 2.0
e 53 155 1.0
e 53 103 29.0
e 53 150 2.0
e 53 88 2.0
e 53 16 3.0
e 53 20 2.0
e 54 77 1.0
e 54 152 2.0
e 54 23 1.0
e 54 49 1.0
e 54 42 1.0
e 54 20 1.0
e 54 7 9.0
e 54 116 1.0
e 55 83 2.0
e 55 119 2.0
e 55 148 2.0
e 55 76 1.0
e 55 2 2.0
e 55 4 1.0
e 55 27 2.0
e 55 138 1.0
e 56 69 1.0
e 56 0 1.0
e 56 62 1.0
e 56 124 1.0
e 56 153 1.0
e 56 95 1.0
e 56 58 14.0
e 57 114 1.0
e 57 4 1.0
e 57 100 21.0
e 57 153 1.0
e 57 122 2.0
e 57 39 1.0
e 57 67 1.0
e 57 157 1.0
e 58 45 18.0
e 58 85 34.0
e 58 4 48.0
e 58 143 14.0
e 58 32 21.0
e 58 70 37.0
e 58 11 41.0
e 58 121 45.0
e 59 95 1.0
e 59 81 2.0
e 59 86 1.0
e 59 34 2.0
e 59 51 1.0
e 59 46 1.0
e 59 12 1.0
e 59 69 1.0
e 60 81 2.0
e 60 144 1.0
e 60 125 2.0
e 60 46 1.0
e 60 6 1.0
e 60 129 2.0
e 60 101 2.0
e 60 119 2.0
e 61 78 22.0
e 61 38 47.0
e 61 32 45.0
e 61 56 4.0
e 61 25 25.0
e 61 106 22.0
e 61 131 16.0
e 61 125 47.0
e 62 144 1.0
e 62 123 13.0
e 62 138 1.0
e 62 46 2.0
e 62 40 1.0
e 62 17 1.0
e 62 127 1.0
e 62 129 2.0
e 63 20 2.0
e 63 116 2.0
e 63 67 1.0
e 63 109 1.0
e 63 79 1.0
e 63 21 2.0
e 63 64 2.0
e 63 47 1.0
e 64 134 2.0
e 64 61 21.0
e 64 99 1.0
e 64 155 1.0
e 64 81 1.0
e 64 120 2.0
e 64 66 1.0
e 65 22 25.0
e 65 94 27.0
e 65 99 2.0
e 65 79 41.0
e 65 60 9.0
e 65 108 24.0
e 65 54 18.0
e 65 9 45.0
e 66 33 1.0
e 66 34 2.0
e 66 1 2.0
e 66 125 1.0
e 66 68 2.0
e 66 88 1.0
e 66 5 41.0
e 66 24 2.0
e 67 145 1.0
e 67 61 37.0
e 67 78 1.0
e 67 128 1.0
e 67 25 1.0
e 67 80 1.0
e 67 124 1.0
e 67 151 1.0
e 68 143 1.0
e 68 83 1.0
e 68 8 1.0
e 68 148 1.0
e 68 43 1.0
e 68 84 1.0
e 68 24 1.0
e 68 15 1.0
e 69 86 1.0
e 69 58 44.0
e 69 137 1.0
e 69 72 18.0
e 69 83 1.0
e 69 144 1.0
e 69 90 1.0
e 69 94 47.0
e 70 126 1.0
e 70 104 1.0
e 70 149 2.0
e 70 117 1.0
e 70 53 2.0
e 70 47 1.0
e 70 39 1.0
e 70 108 1.0
e 71 126 2.0
e 71 45 1.0
e 71 37 1.0
e 71 18 1.0
e 71 15 1.0
e 71 105 37.0
e 71 101 1.0
e 71 91 1.0
e 72 138 30.0
e 72 38 19.0
e 72 3 1.0
e 72 128 44.0
e 72 57 38.0
e 72 85 17.0
e 72 81 11.0
e 73 106 1.0
e 73 125 1.0
e 73 112 1.0
e 73 40 1.0
e 73 88 2.0
e 73 91 2.0
e 73 148 1.0
e 74 2 6.0
e 74 24 1.0
e 74 39 27.0
e 74 44 31.0
e 74 20 13.0
e 74 135 31.0
e 74 133 10.0
e 74 35 46.0
e 75 118 45.0
e 75 100 25.0
e 75 145 1.0
e 75 51 1.0
e 75 149 2.0
e 75 129 1.0
e 75 157 1.0
e 75 83 1.0
e 76 154 1.0
e 76 69 1.0
e 76 78 31.0
e 76 39 1.0
e 76 49 1.0
e 76 106 1.0
e 76 150 1.0
e 77 31 25.0
e 77 99 1.0
e 77 33 1.0
e 77 2 1.0
e 77 82 1.0
e 77 87 1.0
e 77 44 1.0
e 77 74 37.0
e 78 11 37.0
e 78 56 13.0
e 78 23 27.0
e 78 157 10.0
e 78 40 36.0
e 78 47 48.0
e 79 119 2.0
e 79 127 1.0
e 79 59 1.0
e 79 14 1.0
e 79 48 1.0
e 79 128 1.0
e 79 78 24.0
e 79 68 1.0
e 80 55 1.0
e 80 99 1.0
e 80 31 46.0
e 80 5 29.0
e 80 59 1.0
e 80 64 1.0
e 80 20 1.0
e 81 25 2.0
e 81 68 1.0
e 81 45 2.0
e 81 44 1.0
e 81 140 1.0
e 81 129 1.0
e 81 122 1.0
e 82 11 1.0
e 82 67 1.0
e 82 92 12.0
e 82 129 1.0
e 82 131 1.0
e 82 74 34.0
e 82 57 1.0
e 82 69 1.0
e 83 50 1.0
e 83 89 2.0
e 83 67 1.0
e 83 97 1.0
e 83 106 1.0
e 83 12 1.0
e 83 65 43.0
e 83 45 1.0
e 84 22 48.0
e 84 94 14.0
e 84 47 1.0
e 84 58 36.0
e 84 26 20.0
e 84 43 1.0
e 84 100 33.0
e 84 97 1.0
e 85 29 1.0
e 85 63 2.0
e 85 32 1.0
e 85 125 1.0
e 85 34 1.0
e 85 99 1.0
e 85 122 2.0
e 86 11 1.0
e 86 23 1.0
e 86 83 1.0
e 86 95 1.0
e 86 45 1.0
e 86 37 1.0
e 86 21 1.0
e 86 51 1.0
e 87 73 2.0
e 87 152 2.0
e 87 82 1.0
e 87 4 1.0
e 87 112 1.0
e 87 80 1.0
e 87 115 1.0
e 87 140 1.0
e 88 133 2.0
e 88 152 1.0
e 88 150 1.0
e 88 110 2.0
e 88 67 1.0
e 88 13 1.0
e 88 106 1.0
e 88 126 2.0
e 89 97 1.0
e 89 99 2.0
e 89 59 1.0
e 89 56 2.0
e 89 125 1.0
e 89 67 1.0
e 89 74 41.0
e 89 14 2.0
e 90 146 1.0
e 90 144 1.0
e 90 97 2.0
e 90 106 2.0
e 90 96 3.0
e 90 70 1.0
e 90 65 1.0
e 91 128 1.0
e 91 124 1.0
e 91 131 1.0
e 91 83 1.0
e 91 27 2.0
e 91 12 1.0
e 92 5 11.0
e 92 49 2.0
e 92 28 34.0
e 92 112 43.0
e 92 2 26.0
e 92 39 15.0
e 92 155 19.0
e 92 29 5.0
e 93 113 1.0
e 93 19 1.0
e 93 55 2.0
e 93 1 1.0
e 93 67 1.0
e 93 148 1.0
e 93 151 1.0
e 93 147 1.0
e 94 157 4.0
e 94 127 4.0
e 94 118 14.0
e 94 108 30.0
e 94 23 19.0
e 94 125 20.0
e 94 88 4.0
e 95 108 1.0
e 95 29 1.0
e 95 15 2.0
e 95 83 1.0
e 95 87 1.0
e 95 156 1.0
e 95 34 1.0
e 96 135 1.0
e 96 158 1.0
e 96 109 1.0
e 96 68 1.0
e 96 20 1.0
e 96 41 1.0
e 96 69 1.0
e 96 17 1.0
e 97 13 1.0
e 97 37 1.0
e 97 42 1.0
e 97 123 4.0
e 97 55 1.0
e 97 34 1.0
e 97 111 1.0
e 98 132 1.0
e 98 62 1.0
e 98 22 11.0
e 98 150 2.0
e 98 58 43.0
e 98 60 2.0
e 98 156 1.0
e 98 37 1.0
e 99 58 12.0
e 99 111 1.0
e 99 0 1.0
e 99 19 2.0
e 99 27 2.0
e 99 79 1.0
e 99 139 1.0
e 99 54 1.0
e 100 155 9.0
e 100 128 45.0
e 100 28 17.0
e 100 126 33.0
e 100 29 2.0
e 100 114 21.0
e 100 62 32.0
e 101 83 1.0
e 101 139 1.0
e 101 99 1.0
e 101 49 1.0
e 101 86 1.0
e 101 81 1.0
e 101 70 1.0
e 102 38 1.0
e 102 7 18.0
e 102 154 1.0
e 102 28 1.0
e 102 92 27.0
e 102 136 1.0
e 102 151 1.0
e 103 31 18.0
e 103 48 41.0
e 103 5 30.0
e 103 68 31.0
e 103 52 42.0
e 103 73 10.0
e 103 67 19.0
e 104 86 1.0
e 104 92 17.0
e 104 131 1.0
e 104 61 28.0
e 104 62 1.0
e 104 11 1.0
e 104 49 1.0
e 105 74 38.0
e 105 69 41.0
e 105 122 16.0
e 105 146 30.0
e 105 45 1.0
e 105 70 28.0
e 105 153 26.0
e 106 52 2.0
e 106 130 1.0
e 106 48 1.0
e 106 8 1.0
e 106 147 1.0
e 106 155 1.0
e 106 7 22.0
e 107 111 33.0
e 107 25 17.0
e 107 127 4.0
e 107 63 26.0
e 107 1 27.0
e 107 135 36.0
e 107 68 10.0
e 107 133 16.0
e 108 99 1.0
e 108 157 1.0
e 108 66 1.0
e 108 46 1.0
e 108 115 1.0
e 108 87 1.0
e 108 146 1.0
e 108 79 1.0
e 109 0 1.0
e 109 23 2.0
e 109 111 1.0
e 109 36 1.0
e 109 94 25.0
e 109 56 2.0
e 109 64 1.0
e 110 128 1.0
e 110 115 1.0
e 110 153 1.0
e 110 14 1.0
e 110 138 1.0
e 110 123 32.0
e 110 10 1.0
e 110 65 29.0
e 111 60 1.0
e 111 20 1.0
e 111 77 1.0
e 111 121 2.0
e 111 24 2.0
e 111 82 1.0
e 112 97 1.0
e 112 102 1.0
e 112 64 1.0
e 112 137 1.0
e 112 59 1.0
e 112 151 1.0
e 112 158 1.0
e 112 3 1.0
e 113 37 2.0
e 113 16 2.0
e 113 116 3.0
e 113 51 1.0
e 113 148 1.0
e 113 92 18.0
e 114 104 1.0
e 114 157 1.0
e 114 54 1.0
e 114 138 1.0
e 114 158 1.0
e 114 81 1.0
e 114 107 12.0
e 114 103 1.0
e 115 41 2.0
e 115 13 1.0
e 115 125 1.0
e 115 76 1.0
e 115 128 1.0
e 115 50 3.0
e 115 142 1.0
e 115 81 1.0
e 116 26 19.0
e 116 111 1.0
e 116 27 2.0
e 116 51 1.0
e 116 19 1.0
e 116 157 1.0
e 116 39 1.0
e 117 28 1.0
e 117 21 1.0
e 117 107 25.0
e 117 139 1.0
e 117 130 2.0
e 117 112 1.0
e 117 140 1.0
e 117 12 2.0
e 118 43 46.0
e 118 35 33.0
e 118 144 21.0
e 118 87 15.0
e 118 67 7.0
e 118 149 24.0
e 118 97 5.0
e 118 3 17.0
e 119 148 2.0
e 119 108 1.0
e 119 135 2.0
e 119 125 1.0
e 119 49 2.0
e 119 17 1.0
e 119 121 2.0
e 120 29 1.0
e 120 151 1.0
e 120 131 1.0
e 120 92 3.0
e 120 6 1.0
e 120 57 1.0
e 120 62 1.0
e 121 123 14.0
e 121 116 2.0
e 121 40 1.0
e 121 151 1.0
e 121 77 1.0
e 121 149 2.0
e 121 5 42.0
e 122 43 1.0
e 122 120 1.0
e 122 138 2.0
e 122 10 2.0
e 123 99 1.0
e 123 20 2.0
e 123 45 45.0
e 123 22 37.0
e 123 32 21.0
e 123 87 7.0
e 123 55 6.0
e 124 47 1.0
e 124 129 1.0
e 124 1 2.0
e 124 87 1.0
e 124 26 33.0
e 124 110 2.0
e 124 71 1.0
e 125 106 1.0
e 125 102 1.0
e 125 20 1.0
e 125 87 1.0
e 125 123 33.0
e 125 13 1.0
e 125 30 1.0
e 125 27 1.0
e 126 128 1.0
e 126 102 1.0
e 126 157 2.0
e 126 57 1.0
e 126 43 1.0
e 126 147 2.0
e 127 101 1.0
e 127 68 1.0
e 127 59 1.0
e 127 132 1.0
e 127 52 1.0
e 127 134 1.0
e 127 19 1.0
e 128 55 2.0
e 128 113 2.0
e 128 35 1.0
e 128 109 3.0
e 128 84 1.0
e 128 40 1.0
e 128 45 1.0
e 128 125 1.0
e 129 10 1.0
e 129 103 1.0
e 129 97 1.0
e 129 11 1.0
e 129 108 2.0
e 129 135 1.0
e 129 63 1.0
e 129 144 1.0
e 130 79 1.0
e 130 37 1.0
e 130 32 1.0
e 130 125 1.0
e 130 121 1.0
e 130 100 43.0
e 130 39 2.0
e 131 33 1.0
e 131 76 1.0
e 131 28 1.0
e 131 62 1.0
e 131 58 7.0
e 131 143 1.0
e 132 151 1.0
e 132 36 1.0
e 132 144 1.0
e 132 22 10.0
e 132 118 41.0
e 132 124 1.0
e 132 152 1.0
e 133 131 1.0
e 133 99 1.0
e 133 48 1.0
e 133 128 1.0
e 133 33 1.0
e 133 114 1.0
e 133 69 1.0
e 133 152 1.0
e 134 85 1.0
e 134 130 2.0
e 134 118 14.0
e 134 31 44.0
e 134 76 1.0
e 134 7 43.0
e 134 129 1.0
e 134 84 1.0
e 135 133 1.0
e 135 86 1.0
e 135 115 1.0
e 135 28 1.0
e 135 102 1.0
e 135 89 2.0
e 135 62 1.0
e 136 142 1.0
e 136 38 1.0
e 136 134 1.0
e 136 125 1.0
e 136 139 1.0
e 136 100 37.0
e 136 58 25.0
e 137 64 2.0
e 137 116 2.0
e 137 56 1.0
e 137 21 1.0
e 137 9 1.0
e 137 119 2.0
e 137 145 1.0
e 138 33 1.0
e 138 14 1.0
e 138 100 27.0
e 138 108 1.0
e 138 70 1.0
e 138 9 1.0
e 138 144 1.0
e 139 110 1.0
e 139 103 20.0
e 139 100 7.0
e 139 92 43.0
e 139 69 1.0
e 139 122 1.0
e 139 16 2.0
e 140 67 1.0
e 140 32 1.0
e 140 147 1.0
e 140 95 1.0
e 140 57 1.0
e 140 9 1.0
e 140 35 1.0
e 140 79 1.0
e 141 82 13.0
e 141 14 3.0
e 141 151 16.0
e 141 95 26.0
e 141 136 15.0
e 141 155 2.0
e 141 139 47.0
e 141 72 32.0
e 142 3 1.0
e 142 71 1.0
e 142 67 1.0
e 142 103 35.0
e 142 72 6.0
e 142 154 1.0
e 142 91 1.0
e 142 14 1.0
e 143 130 1.0
e 143 81 1.0
e 143 134 2.0
e 143 108 2.0
e 143 59 2.0
e 144 0 1.0
e 144 19 1.0
e 144 110 1.0
e 144 61 26.0
e 144 41 2.0
e 144 3 1.0
e 144 65 10.0
e 144 111 1.0
e 145 32 1.0
e 145 158 1.0
e 145 73 1.0
e 145 28 1.0
e 145 50 2.0
e 145 147 1.0
e 145 101 1.0
e 146 133 1.0
e 146 143 1.0
e 146 66 1.0
e 146 138 1.0
e 146 91 1.0
e 146 34 1.0
e 147 43 1.0
e 147 70 1.0
e 147 136 1.0
e 147 21 1.0
e 147 45 1.0
e 147 115 1.0
e 147 35 1.0
e 148 67 1.0
e 148 0 1.0
e 148 104 1.0
e 148 39 1.0
e 148 90 2.0
e 148 11 1.0
e 148 106 1.0
e 148 145 1.0
e 149 157 2.0
e 149 119 2.0
e 149 35 1.0
e 149 46 1.0
e 149 24 1.0
e 149 27 2.0
e 149 40 1.0
e 150 140 3.0
e 150 83 1.0
e 150 106 2.0
e 150 141 46.0
e 150 73 2.0
e 150 135 2.0
e 150 153 1.0
e 150 47 1.0
e 151 95 1.0
e 151 126 1.0
e 151 64 1.0
e 151 45 1.0
e 151 48 1.0
e 151 5 12.0
e 152 30 1.0
e 152 18 1.0
e 152 9 1.0
e 152 63 1.0
e 152 89 1.0
e 152 68 1.0
e 152 22 42.0
e 152 33 1.0
e 153 20 1.0
e 153 94 38.0
e 153 101 1.0
e 153 122 1.0
e 153 149 2.0
e 153 37 1.0
e 153 121 1.0
e 154 90 1.0
e 154 74 31.0
e 154 123 9.0
e 154 66 1.0
e 154 92 21.0
e 154 158 1.0
e 154 84 1.0
e 154 101 1.0
e 155 115 1.0
e 155 101 1.0
e 155 118 10.0
e 155 112 1.0
e 155 142 1.0
e 155 2 1.0
e 155 86 1.0
e 156 83 1.0
e 156 19 1.0
e 156 93 1.0
e 156 114 1.0
e 156 50 2.0
e 156 48 1.0
e 156 69 1.0
e 156 124 1.0
e 157 35 1.0
e 157 26 47.0
e 157 102 1.0
e 157 2 1.0
e 157 18 1.0
e 157 130 1.0
e 157 41 1.0
e 157 113 2.0
e 158 5 25.0
e 158 104 1.0
e 158 20 1.0
e 158 75 1.0
e 158 30 1.0
e 158 22 14.0
e 158 89 2.0
e 158 53 1.0
e 159 140 1.0
e 159 1 2.0
e 159 107 11.0
e 159 132 1.0
e 159 89 1.0
e 159 93 1.0
e 159 9 2.0
e 159 128 1.0
